p cnf 191 214
c ind 86 87 88 89 90 0
c ind 91 92 93 94 95 96 97 98 99 100 0
c ind 101 102 103 104 105 106 107 108 109 110 0
c ind 111 112 113 114 115 116 117 118 119 120 0
c ind 121 122 123 124 125 126 127 128 129 130 0
c ind 131 132 133 134 135 136 137 138 139 140 0
c ind 141 142 143 144 145 146 147 148 149 150 0
c ind 151 152 153 154 155 156 157 158 159 160 0
c ind 161 162 163 164 165 166 167 168 169 170 0
c ind 171 172 173 174 175 176 177 178 179 180 0
c ind 181 182 183 184 185 186 187 188 189 190 0
c ind 191 0
47 0
-65 0
-1 -86 2 0
1 -86 -2 0
-1 -87 4 0
1 -87 -4 0
-1 -88 5 0
1 -88 -5 0
-1 -89 44 0
1 -89 -44 0
-1 -90 73 0
1 -90 -73 0
-1 -91 75 0
1 -91 -75 0
-1 -92 82 0
1 -92 -82 0
-2 -93 5 0
2 -93 -5 0
-2 -94 6 0
2 -94 -6 0
-2 -95 8 0
2 -95 -8 0
-2 -96 47 0
2 -96 -47 0
-2 -97 60 0
2 -97 -60 0
-2 -98 75 0
2 -98 -75 0
-3 -99 6 0
3 -99 -6 0
-3 -100 9 0
3 -100 -9 0
-3 -101 36 0
3 -101 -36 0
-4 -102 5 0
4 -102 -5 0
-4 -103 7 0
4 -103 -7 0
-4 -104 14 0
4 -104 -14 0
-4 -105 32 0
4 -105 -32 0
-4 -106 43 0
4 -106 -43 0
-5 -107 83 0
5 -107 -83 0
-6 -108 11 0
6 -108 -11 0
-6 -109 38 0
6 -109 -38 0
-7 -110 40 0
7 -110 -40 0
-7 -111 42 0
7 -111 -42 0
-7 -112 44 0
7 -112 -44 0
-7 -113 58 0
7 -113 -58 0
-7 -114 69 0
7 -114 -69 0
-8 -115 48 0
8 -115 -48 0
-8 -116 74 0
8 -116 -74 0
-8 -117 75 0
8 -117 -75 0
-8 -118 78 0
8 -118 -78 0
-9 -119 17 0
9 -119 -17 0
-10 -120 28 0
10 -120 -28 0
-10 -121 29 0
10 -121 -29 0
-10 -122 47 0
10 -122 -47 0
-11 -123 12 0
11 -123 -12 0
-11 -124 21 0
11 -124 -21 0
-13 -125 65 0
13 -125 -65 0
-14 -126 15 0
14 -126 -15 0
-14 -127 37 0
14 -127 -37 0
-14 -128 38 0
14 -128 -38 0
-14 -129 46 0
14 -129 -46 0
-14 -130 48 0
14 -130 -48 0
-14 -131 66 0
14 -131 -66 0
-15 -132 45 0
15 -132 -45 0
-15 -133 46 0
15 -133 -46 0
-15 -134 56 0
15 -134 -56 0
-16 -135 17 0
16 -135 -17 0
-18 -136 19 0
18 -136 -19 0
-19 -137 21 0
19 -137 -21 0
-20 -138 21 0
20 -138 -21 0
-22 -139 23 0
22 -139 -23 0
-23 -140 24 0
23 -140 -24 0
-24 -141 28 0
24 -141 -28 0
-25 -142 26 0
25 -142 -26 0
-26 -143 27 0
26 -143 -27 0
-26 -144 28 0
26 -144 -28 0
-29 -145 30 0
29 -145 -30 0
-30 -146 31 0
30 -146 -31 0
-32 -147 33 0
32 -147 -33 0
-34 -148 36 0
34 -148 -36 0
-35 -149 36 0
35 -149 -36 0
-37 -150 70 0
37 -150 -70 0
-39 -151 40 0
39 -151 -40 0
-41 -152 42 0
41 -152 -42 0
-42 -153 43 0
42 -153 -43 0
-45 -154 74 0
45 -154 -74 0
-46 -155 57 0
46 -155 -57 0
-47 -156 53 0
47 -156 -53 0
-47 -157 79 0
47 -157 -79 0
-48 -158 50 0
48 -158 -50 0
-49 -159 63 0
49 -159 -63 0
-51 -160 53 0
51 -160 -53 0
-51 -161 54 0
51 -161 -54 0
-52 -162 53 0
52 -162 -53 0
-54 -163 55 0
54 -163 -55 0
-54 -164 56 0
54 -164 -56 0
-58 -165 61 0
58 -165 -61 0
-58 -166 67 0
58 -166 -67 0
-59 -167 63 0
59 -167 -63 0
-59 -168 74 0
59 -168 -74 0
-60 -169 74 0
60 -169 -74 0
-60 -170 80 0
60 -170 -80 0
-60 -171 84 0
60 -171 -84 0
-61 -172 62 0
61 -172 -62 0
-61 -173 71 0
61 -173 -71 0
-61 -174 72 0
61 -174 -72 0
-61 -175 85 0
61 -175 -85 0
-62 -176 68 0
62 -176 -68 0
-62 -177 82 0
62 -177 -82 0
-62 -178 84 0
62 -178 -84 0
-63 -179 81 0
63 -179 -81 0
-64 -180 65 0
64 -180 -65 0
-64 -181 74 0
64 -181 -74 0
-65 -182 66 0
65 -182 -66 0
-65 -183 67 0
65 -183 -67 0
-65 -184 68 0
65 -184 -68 0
-69 -185 70 0
69 -185 -70 0
-76 -186 77 0
76 -186 -77 0
-77 -187 78 0
77 -187 -78 0
-81 -188 84 0
81 -188 -84 0
-82 -189 84 0
82 -189 -84 0
-82 -190 85 0
82 -190 -85 0
-83 -191 84 0
83 -191 -84 0
w 86 0.4375
w 87 0.5
w 88 0.5
w 89 0.5
w 90 0.5
w 91 0.5
w 92 0.5
w 93 0.5
w 94 0.5
w 95 0.5
w 96 0.5625
w 97 0.5625
w 98 0.5625
w 99 0.5
w 100 0.5
w 101 0.5
w 102 0.5
w 103 0.5
w 104 0.5
w 105 0.5
w 106 0.5
w 107 0.5
w 108 0.5
w 109 0.5
w 110 0.5625
w 111 0.5
w 112 0.5
w 113 0.5625
w 114 0.5
w 115 0.5
w 116 0.5
w 117 0.5
w 118 0.5
w 119 0.5625
w 120 0.5
w 121 0.5
w 122 0.5
w 123 0.5
w 124 0.5
w 125 0.5
w 126 0.5
w 127 0.5
w 128 0.4375
w 129 0.5
w 130 0.5
w 131 0.5
w 132 0.5
w 133 0.5
w 134 0.5
w 135 0.5
w 136 0.5
w 137 0.5
w 138 0.5
w 139 0.5
w 140 0.5
w 141 0.5
w 142 0.5
w 143 0.5
w 144 0.5
w 145 0.5
w 146 0.5
w 147 0.5625
w 148 0.5
w 149 0.5
w 150 0.5
w 151 0.5
w 152 0.5
w 153 0.5
w 154 0.5
w 155 0.5
w 156 0.5
w 157 0.5
w 158 0.5
w 159 0.5
w 160 0.5
w 161 0.5
w 162 0.5
w 163 0.5
w 164 0.5
w 165 0.5
w 166 0.5
w 167 0.5
w 168 0.5
w 169 0.4375
w 170 0.5
w 171 0.5
w 172 0.5
w 173 0.5
w 174 0.5625
w 175 0.5
w 176 0.5
w 177 0.5
w 178 0.5
w 179 0.5
w 180 0.5
w 181 0.5
w 182 0.5
w 183 0.5
w 184 0.5
w 185 0.5
w 186 0.5
w 187 0.5
w 188 0.4375
w 189 0.5
w 190 0.5
w 191 0.5
